
Gurobi 9.0.1 (linux64) logging started Fri May  1 00:48:41 2020

Gurobi Optimizer version 9.0.1 build v9.0.1rc0 (linux64)
Optimize a model with 2198 rows, 1492 columns and 8304 nonzeros
Model fingerprint: 0x6fe6b4cb
Variable types: 0 continuous, 1492 integer (1452 binary)
Coefficient statistics:
  Matrix range     [1e+00, 1e+01]
  Objective range  [3e+00, 1e+02]
  Bounds range     [1e+00, 1e+00]
  RHS range        [1e+00, 1e+01]

User MIP start produced solution with objective 622 (0.00s)
Loaded user MIP start with objective 622

Presolve removed 1556 rows and 672 columns
Presolve time: 0.02s
Presolved: 642 rows, 820 columns, 3640 nonzeros
Variable types: 0 continuous, 820 integer (800 binary)

Root relaxation: objective 3.652000e+02, 377 iterations, 0.01 seconds

    Nodes    |    Current Node    |     Objective Bounds      |     Work
 Expl Unexpl |  Obj  Depth IntInf | Incumbent    BestBd   Gap | It/Node Time

     0     0  365.20000    0   30  622.00000  365.20000  41.3%     -    0s
     0     0  455.50000    0   35  622.00000  455.50000  26.8%     -    0s
     0     0  455.50000    0   37  622.00000  455.50000  26.8%     -    0s
     0     0  460.00000    0   58  622.00000  460.00000  26.0%     -    0s
     0     0  460.00000    0   55  622.00000  460.00000  26.0%     -    0s
     0     0  462.40000    0   66  622.00000  462.40000  25.7%     -    0s
     0     0  462.40000    0   73  622.00000  462.40000  25.7%     -    0s
     0     0  484.00000    0   54  622.00000  484.00000  22.2%     -    0s
     0     0  484.00000    0   62  622.00000  484.00000  22.2%     -    0s
     0     0  484.00000    0   39  622.00000  484.00000  22.2%     -    0s
     0     0  484.00000    0   43  622.00000  484.00000  22.2%     -    0s
     0     0  484.00000    0   45  622.00000  484.00000  22.2%     -    0s
     0     0  484.00000    0   45  622.00000  484.00000  22.2%     -    0s
     0     0  484.00000    0   44  622.00000  484.00000  22.2%     -    0s
     0     0  484.00000    0   53  622.00000  484.00000  22.2%     -    0s
     0     0  484.00000    0   37  622.00000  484.00000  22.2%     -    0s
     0     0  484.00000    0   37  622.00000  484.00000  22.2%     -    0s
     0     2  484.00000    0   37  622.00000  484.00000  22.2%     -    0s
H  217   169                     605.0000000  484.00000  20.0%  13.5    0s
H  244   195                     602.0000000  484.00000  19.6%  13.7    0s
*  260    97              40     569.0000000  484.00000  14.9%  13.5    0s
   940   437  547.00000   36   58  569.00000  484.50000  14.9%  23.0    5s
* 1391   568              80     567.0000000  491.00000  13.4%  20.9    6s
H 2051   401                     544.0000000  492.88889  9.40%  19.6    7s
* 3146   679              47     541.0000000  508.77778  5.96%  20.4    9s
  3245   701  539.00000   37   46  541.00000  509.66667  5.79%  20.6   10s
H 3492   515                     538.0000000  513.22222  4.61%  20.9   10s
* 3838   512              41     537.0000000  517.21053  3.69%  21.6   11s
* 3873   440              38     534.0000000  517.83333  3.03%  21.8   11s
H 3999   412                     532.0000000  523.00000  1.69%  22.2   12s
H 4137   254                     526.0000000  523.00000  0.57%  22.4   12s
H 4151     3                     523.0000000  523.00000  0.00%  22.4   12s

Cutting planes:
  Learned: 7
  Gomory: 13
  Cover: 18
  Implied bound: 48
  Clique: 1
  MIR: 12
  Flow cover: 36
  GUB cover: 1
  Zero half: 19
  Relax-and-lift: 1

Explored 4152 nodes (95070 simplex iterations) in 12.93 seconds
Thread count was 1 (of 40 available processors)

Solution count 10: 523 526 532 ... 569

Optimal solution found (tolerance 1.00e-04)
Best objective 5.230000000000e+02, best bound 5.230000000000e+02, gap 0.0000%

User-callback calls 14285, time in user-callback 0.01 sec
